10	10
6	67	7	14	8	76	5	87	4	64	2	95	9	47	1	47	3	98	0	47
0	26	3	3	5	67	2	83	1	8	6	44	8	87	7	69	4	32	9	73
6	92	4	87	9	19	7	3	1	11	0	84	3	46	2	6	5	59	8	94
4	23	6	10	1	65	5	36	3	42	7	61	0	7	2	56	9	47	8	86
6	73	5	18	3	97	1	74	4	51	2	8	0	86	8	76	9	46	7	53
4	21	5	97	3	2	9	66	1	3	2	31	0	1	7	80	8	83	6	95
4	2	5	60	0	6	6	49	2	3	8	94	7	60	9	41	3	88	1	94
1	76	7	71	9	50	2	36	0	16	8	90	5	30	6	34	3	49	4	35
7	4	8	76	5	72	1	3	9	73	4	97	3	53	0	1	2	48	6	41
2	4	8	91	9	95	5	85	1	98	0	12	3	24	6	84	4	97	7	35
